Grasp exp. instance_n_15_m_5_id_4.lp tipoLifted 0 szPool 5 nIteration 20 alpha 0.6 
Academic license - for non-commercial use only
Read LP format model from file ../input/instancesGenerated/instance_n_15_m_5_id_4.lp
Reading time = 0.00 seconds
: 5 rows, 15 columns, 75 nonzeros
Optimize a model with 5 rows, 15 columns and 75 nonzeros
Variable types: 0 continuous, 15 integer (15 binary)
Coefficient statistics:
  Matrix range     [1e+00, 1e+01]
  Objective range  [1e+00, 1e+01]
  Bounds range     [1e+00, 1e+00]
  RHS range        [3e+01, 4e+01]
Found heuristic solution: objective 41.0000000

Explored 0 nodes (0 simplex iterations) in 0.00 seconds
Thread count was 1 (of 8 available processors)

Solution count 1: 41 
No other solutions better than 0

Solution limit reached
Best objective 4.100000000000e+01, best bound -, gap -
C_1:	 7.00 x_1  = 0.769921 + 4.00 x_2  = 0.000000 + 7.00 x_3  = 0.000000 + 3.00 x_4  = 0.825006 + 1.00 x_5  = 0.000000 + 3.00 x_6  = 1.000000 + 3.00 x_7  = 1.000000 + 9.00 x_8  = 0.000000 + 2.00 x_9  = 0.169101 + 2.00 x_10  = 1.000000 + 10.00 x_11  = 0.000000 + 2.00 x_12  = 0.404817 + 5.00 x_13  = 1.000000 + 6.00 x_14  = 1.000000 + 5.00 x_15  = 1.000000 <= 34.00
C_2:	 6.00 x_1  = 0.769921 + 3.00 x_2  = 0.000000 + 3.00 x_3  = 0.000000 + 3.00 x_4  = 0.825006 + 2.00 x_5  = 0.000000 + 5.00 x_6  = 1.000000 + 3.00 x_7  = 1.000000 + 6.00 x_8  = 0.000000 + 10.00 x_9  = 0.169101 + 4.00 x_10  = 1.000000 + 2.00 x_11  = 0.000000 + 3.00 x_12  = 0.404817 + 2.00 x_13  = 1.000000 + 2.00 x_14  = 1.000000 + 1.00 x_15  = 1.000000 <= 27.00
C_3:	 9.00 x_1  = 0.769921 + 8.00 x_2  = 0.000000 + 6.00 x_3  = 0.000000 + 7.00 x_4  = 0.825006 + 1.00 x_5  = 0.000000 + 6.00 x_6  = 1.000000 + 1.00 x_7  = 1.000000 + 5.00 x_8  = 0.000000 + 4.00 x_9  = 0.169101 + 4.00 x_10  = 1.000000 + 6.00 x_11  = 0.000000 + 4.00 x_12  = 0.404817 + 5.00 x_13  = 1.000000 + 3.00 x_14  = 1.000000 + 1.00 x_15  = 1.000000 <= 35.00
C_4:	 2.00 x_1  = 0.769921 + 8.00 x_2  = 0.000000 + 6.00 x_3  = 0.000000 + 6.00 x_4  = 0.825006 + 2.00 x_5  = 0.000000 + 7.00 x_6  = 1.000000 + 2.00 x_7  = 1.000000 + 4.00 x_8  = 0.000000 + 4.00 x_9  = 0.169101 + 1.00 x_10  = 1.000000 + 8.00 x_11  = 0.000000 + 7.00 x_12  = 0.404817 + 6.00 x_13  = 1.000000 + 1.00 x_14  = 1.000000 + 9.00 x_15  = 1.000000 <= 36.00
C_5:	 6.00 x_1  = 0.769921 + 9.00 x_2  = 0.000000 + 6.00 x_3  = 0.000000 + 1.00 x_4  = 0.825006 + 7.00 x_5  = 0.000000 + 8.00 x_6  = 1.000000 + 6.00 x_7  = 1.000000 + 8.00 x_8  = 0.000000 + 3.00 x_9  = 0.169101 + 1.00 x_10  = 1.000000 + 1.00 x_11  = 0.000000 + 10.00 x_12  = 0.404817 + 6.00 x_13  = 1.000000 + 8.00 x_14  = 1.000000 + 2.00 x_15  = 1.000000 <= 41.00
Solution initial: 59.863951 
Number Constraints Used in Cover:5
GRASP Method!
Number cuts repeat: 0
value: 59.863951
Number Constraints Used in Cover:12
GRASP Method!
Number cuts repeat: 0
value: 59.863951
Number Constraints Used in Cover:14
GRASP Method!
Number cuts repeat: 0
value: 59.863951
Number Constraints Used in Cover:22
GRASP Method!
Number cuts repeat: 0
value: 59.863951
Number Constraints Used in Cover:26
GRASP Method!
Number cuts repeat: 0
value: 59.863951
Number Constraints Used in Cover:36
GRASP Method!
Number cuts repeat: 0
value: 59.863951
Number Constraints Used in Cover:46
GRASP Method!
Number cuts repeat: 0
value: 59.863951
Number Constraints Used in Cover:61
GRASP Method!
Number cuts repeat: 0
value: 59.863951
Number Constraints Used in Cover:65
GRASP Method!
Number cuts repeat: 0
value: 59.863951
Number Constraints Used in Cover:68
GRASP Method!
Number cuts repeat: 0
value: 59.863951
Number Constraints Used in Cover:76
GRASP Method!
Number cuts repeat: 0
value: 59.863951
Number Constraints Used in Cover:80
GRASP Method!
Number cuts repeat: 0
value: 59.863951
Number Constraints Used in Cover:87
GRASP Method!
Number cuts repeat: 0
value: 59.863951
Number Constraints Used in Cover:93
GRASP Method!
Number cuts repeat: 0
value: 59.863951
Number Constraints Used in Cover:99
GRASP Method!
Number cuts repeat: 0
value: 59.863951
Number Constraints Used in Cover:106
GRASP Method!
Number cuts repeat: 0
value: 59.863951
Number Constraints Used in Cover:109
GRASP Method!
Number cuts repeat: 0
value: 59.863951
Number Constraints Used in Cover:115
GRASP Method!
Number cuts repeat: 0
value: 59.863951
Number Constraints Used in Cover:117
GRASP Method!
Number cuts repeat: 0
value: 59.863951
Number Constraints Used in Cover:123
GRASP Method!
Number cuts repeat: 0
value: 59.863951
Number Constraints Used in Cover:126
GRASP Method!
Number cuts repeat: 0
value: 59.863951
Number Constraints Used in Cover:132
GRASP Method!
Number cuts repeat: 0
value: 59.863951
Number Constraints Used in Cover:139
GRASP Method!
Number cuts repeat: 0
value: 59.863951
Number Constraints Used in Cover:140
GRASP Method!
Number cuts repeat: 0
value: 59.863951
Number Constraints Used in Cover:143
GRASP Method!
Number cuts repeat: 0
value: 59.863951
Number Constraints Used in Cover:145
GRASP Method!
Number cuts repeat: 0
value: 59.863951
Number Constraints Used in Cover:146
GRASP Method!
Number cuts repeat: 0
value: 59.863951
Number Constraints Used in Cover:146
GRASP Method!
Number cuts repeat: 0
value: 59.863951
Number Constraints Used in Cover:152
GRASP Method!
Number cuts repeat: 0
value: 59.863951
Number Constraints Used in Cover:153
GRASP Method!
Number cuts repeat: 0
value: 59.863951
Number Constraints Used in Cover:153
GRASP Method!
Number cuts repeat: 0
value: 59.863951
Number Constraints Used in Cover:155
GRASP Method!
Number cuts repeat: 0
value: 59.863951
Number Constraints Used in Cover:158
GRASP Method!
Number cuts repeat: 0
value: 59.863951
Number Constraints Used in Cover:161
GRASP Method!
Number cuts repeat: 0
value: 59.863951
Number Constraints Used in Cover:161
GRASP Method!
Number cuts repeat: 0
value: 59.863951
Number Constraints Used in Cover:168
GRASP Method!
Number cuts repeat: 0
value: 59.863951
Number Constraints Used in Cover:171
GRASP Method!
Number cuts repeat: 0
value: 59.863951
Number Constraints Used in Cover:176
GRASP Method!
Number cuts repeat: 0
value: 59.863951
Number Constraints Used in Cover:182
GRASP Method!
Number cuts repeat: 0
value: 59.863951
Number Constraints Used in Cover:185
GRASP Method!
Number cuts repeat: 0
value: 59.863951
Number Constraints Used in Cover:189
GRASP Method!
Number cuts repeat: 0
value: 59.863951
Number Constraints Used in Cover:194
GRASP Method!
Number cuts repeat: 0
value: 59.863951
Number Constraints Used in Cover:200
GRASP Method!
Number cuts repeat: 0
value: 59.863951
Number Constraints Used in Cover:201
GRASP Method!
Number cuts repeat: 0
value: 59.863951
Number Constraints Used in Cover:202
GRASP Method!
Number cuts repeat: 0
value: 59.863951
Number Constraints Used in Cover:205
GRASP Method!
Number cuts repeat: 0
value: 59.863951
Number Constraints Used in Cover:210
GRASP Method!
Number cuts repeat: 0
value: 59.863951
Number Constraints Used in Cover:217
GRASP Method!
Number cuts repeat: 0
value: 59.863951
Number Constraints Used in Cover:220
GRASP Method!
Number cuts repeat: 0
value: 59.863951
Number Constraints Used in Cover:225
GRASP Method!
Number cuts repeat: 0
value: 59.863951
Number Constraints Used in Cover:228
GRASP Method!
Number cuts repeat: 0
value: 59.863951
Number Constraints Used in Cover:229
GRASP Method!
Number cuts repeat: 0
value: 59.863951
Number Constraints Used in Cover:232
GRASP Method!
Number cuts repeat: 0
value: 59.863951
Number Constraints Used in Cover:238
GRASP Method!
Number cuts repeat: 0
value: 59.863951
Number Constraints Used in Cover:240
GRASP Method!
Number cuts repeat: 0
value: 59.863951
Number Constraints Used in Cover:245
GRASP Method!
Number cuts repeat: 0
value: 59.863951
Number Constraints Used in Cover:250
GRASP Method!
Number cuts repeat: 0
value: 59.863951
Number Constraints Used in Cover:252
GRASP Method!
Number cuts repeat: 0
value: 59.863951
Number Constraints Used in Cover:253
GRASP Method!
Number cuts repeat: 0
value: 59.863951
Number Constraints Used in Cover:254
GRASP Method!
Number cuts repeat: 0
value: 59.863951
Number Constraints Used in Cover:254
GRASP Method!
Number cuts repeat: 0
value: 59.863951
Number Constraints Used in Cover:259
GRASP Method!
Number cuts repeat: 0
value: 59.863951
Number Constraints Used in Cover:264
GRASP Method!
Number cuts repeat: 0
value: 59.863951
Number Constraints Used in Cover:266
GRASP Method!
Number cuts repeat: 0
value: 59.863951
Number Constraints Used in Cover:268
GRASP Method!
Number cuts repeat: 0
value: 59.863951
Number Constraints Used in Cover:273
GRASP Method!
Number cuts repeat: 0
value: 59.863951
Number Constraints Used in Cover:279
GRASP Method!
Number cuts repeat: 0
value: 59.863951
Number Constraints Used in Cover:281
GRASP Method!
Number cuts repeat: 0
value: 59.863951
Number Constraints Used in Cover:285
GRASP Method!
Number cuts repeat: 0
value: 59.863951
Number Constraints Used in Cover:285
GRASP Method!
Number cuts repeat: 0
value: 59.863951
Number Constraints Used in Cover:287
GRASP Method!
Number cuts repeat: 0
value: 59.863951
Number Constraints Used in Cover:293
GRASP Method!
Number cuts repeat: 0
value: 59.863951
Number Constraints Used in Cover:293
GRASP Method!
Number cuts repeat: 0
value: 59.863951
Number Constraints Used in Cover:294
GRASP Method!
Number cuts repeat: 0
value: 59.863951
Number Constraints Used in Cover:300
GRASP Method!
Number cuts repeat: 0
value: 59.863951
Number Constraints Used in Cover:302
GRASP Method!
Number cuts repeat: 0
value: 59.863951
Number Constraints Used in Cover:303
GRASP Method!
Number cuts repeat: 0
value: 59.863951
Number Constraints Used in Cover:305
GRASP Method!
Number cuts repeat: 0
value: 59.863951
Number Constraints Used in Cover:310
GRASP Method!
Number cuts repeat: 0
value: 59.863951
Number Constraints Used in Cover:315
GRASP Method!
Number cuts repeat: 0
value: 59.863951
Number Constraints Used in Cover:315
GRASP Method!
Number cuts repeat: 0
value: 59.863951
Number Constraints Used in Cover:315
GRASP Method!
Number cuts repeat: 0
value: 59.863951
Number Constraints Used in Cover:320
GRASP Method!
Number cuts repeat: 0
value: 59.863951
Number Constraints Used in Cover:321
GRASP Method!
Number cuts repeat: 0
value: 59.863951
Number Constraints Used in Cover:324
GRASP Method!
Number cuts repeat: 0
value: 59.863951
Number Constraints Used in Cover:326
GRASP Method!
Number cuts repeat: 0
value: 59.863951
Number Constraints Used in Cover:329
GRASP Method!
Number cuts repeat: 0
value: 59.863951
Number Constraints Used in Cover:330
GRASP Method!
Number cuts repeat: 0
value: 59.863951
Number Constraints Used in Cover:334
GRASP Method!
Number cuts repeat: 0
value: 59.863951
Number Constraints Used in Cover:339
GRASP Method!
Number cuts repeat: 0
value: 59.863951
Number Constraints Used in Cover:341
GRASP Method!
Number cuts repeat: 0
value: 59.863951
Number Constraints Used in Cover:345
GRASP Method!
Number cuts repeat: 0
value: 59.863951
Number Constraints Used in Cover:347
GRASP Method!
Number cuts repeat: 0
value: 59.863951
Number Constraints Used in Cover:347
GRASP Method!
Number cuts repeat: 0
value: 59.863951
Number Constraints Used in Cover:351
GRASP Method!
Number cuts repeat: 0
value: 59.863951
Number Constraints Used in Cover:352
GRASP Method!
Number cuts repeat: 0
value: 59.863951
Number Constraints Used in Cover:354
GRASP Method!
Number cuts repeat: 0
value: 59.863951
Number Constraints Used in Cover:356
GRASP Method!
Number cuts repeat: 0
value: 59.863951
Number Constraints Used in Cover:360
GRASP Method!
Number cuts repeat: 0
value: 59.863951
Number Constraints Used in Cover:362
GRASP Method!
Number cuts repeat: 0
value: 59.863951
Number Constraints Used in Cover:365
GRASP Method!
Number cuts repeat: 0
value: 59.863951
Number Constraints Used in Cover:367
GRASP Method!
Number cuts repeat: 0
value: 59.863951
Number Constraints Used in Cover:369
GRASP Method!
Number cuts repeat: 0
value: 59.863951
Number Constraints Used in Cover:378
GRASP Method!
Number cuts repeat: 0
value: 59.863951
Number Constraints Used in Cover:378
GRASP Method!
Number cuts repeat: 0
value: 59.863951
Number Constraints Used in Cover:380
GRASP Method!
Number cuts repeat: 0
value: 59.863951
Number Constraints Used in Cover:383
GRASP Method!
Number cuts repeat: 0
value: 59.863951
Number Constraints Used in Cover:385
GRASP Method!
Number cuts repeat: 0
value: 59.863951
Number Constraints Used in Cover:388
GRASP Method!
Number cuts repeat: 0
value: 59.863951
Number Constraints Used in Cover:391
GRASP Method!
Number cuts repeat: 0
value: 59.863951
Number Constraints Used in Cover:393
GRASP Method!
Number cuts repeat: 0
value: 59.863951
Number Constraints Used in Cover:393
GRASP Method!
Number cuts repeat: 0
value: 59.863951
Number Constraints Used in Cover:395
GRASP Method!
Number cuts repeat: 0
value: 59.863951
Number Constraints Used in Cover:395
GRASP Method!
Number cuts repeat: 0
value: 59.863951
Number Constraints Used in Cover:395
GRASP Method!
Number cuts repeat: 0
value: 59.863951
Number Constraints Used in Cover:396
GRASP Method!
Number cuts repeat: 0
value: 59.863951
Number Constraints Used in Cover:397
GRASP Method!
Number cuts repeat: 0
value: 59.863951
Number Constraints Used in Cover:399
GRASP Method!
Number cuts repeat: 0
value: 59.863951
Number Constraints Used in Cover:399
GRASP Method!
Number cuts repeat: 0
value: 59.863951
Number Constraints Used in Cover:401
GRASP Method!
Number cuts repeat: 0
value: 59.863951
Number Constraints Used in Cover:403
GRASP Method!
Number cuts repeat: 0
value: 59.863951
Number Constraints Used in Cover:404
GRASP Method!
Number cuts repeat: 0
value: 59.863951
Number Constraints Used in Cover:406
GRASP Method!
Number cuts repeat: 0
value: 59.863951
Number Constraints Used in Cover:407
GRASP Method!
Number cuts repeat: 0
value: 59.863951
Number Constraints Used in Cover:407
GRASP Method!
Number cuts repeat: 0
value: 59.863951
Number Constraints Used in Cover:411
GRASP Method!
Number cuts repeat: 0
value: 59.863951
Number Constraints Used in Cover:412
GRASP Method!
Number cuts repeat: 0
value: 59.863951
Number Constraints Used in Cover:412
GRASP Method!
Number cuts repeat: 0
value: 59.863951
Number Constraints Used in Cover:412
GRASP Method!
Number cuts repeat: 0
value: 59.863951
Number Constraints Used in Cover:412
GRASP Method!
Number cuts repeat: 0
value: 59.863951
Number Constraints Used in Cover:412
GRASP Method!
Number cuts repeat: 0
value: 59.863951
Number Constraints Used in Cover:412
GRASP Method!
Number cuts repeat: 0
value: 59.863951
Number Constraints Used in Cover:412
GRASP Method!
Number cuts repeat: 0
value: 59.863951
Number Constraints Used in Cover:414
GRASP Method!
Number cuts repeat: 0
value: 59.863951
Number Constraints Used in Cover:414
GRASP Method!
Number cuts repeat: 0
value: 59.863951
Number Constraints Used in Cover:416
GRASP Method!
Number cuts repeat: 0
value: 59.863951
Number Constraints Used in Cover:417
GRASP Method!
Number cuts repeat: 0
value: 59.863951
Number Constraints Used in Cover:417
GRASP Method!
Number cuts repeat: 0
value: 59.863951
Number Constraints Used in Cover:417
GRASP Method!
Number cuts repeat: 0
value: 59.863951
Number Constraints Used in Cover:419
GRASP Method!
Number cuts repeat: 0
value: 59.863951
Number Constraints Used in Cover:420
GRASP Method!
Number cuts repeat: 0
value: 59.863951
Number Constraints Used in Cover:420
GRASP Method!
Number cuts repeat: 0
value: 59.863951
Number Constraints Used in Cover:422
GRASP Method!
Number cuts repeat: 0
value: 59.863951
Number Constraints Used in Cover:424
GRASP Method!
Number cuts repeat: 0
value: 59.863951
Number Constraints Used in Cover:425
GRASP Method!
Number cuts repeat: 0
value: 59.863951
Number Constraints Used in Cover:425
GRASP Method!
Number cuts repeat: 0
value: 59.863951
Number Constraints Used in Cover:427
GRASP Method!
Number cuts repeat: 0
value: 59.863951
Number Constraints Used in Cover:430
GRASP Method!
Number cuts repeat: 0
value: 59.863951
Number Constraints Used in Cover:432
GRASP Method!
Number cuts repeat: 0
value: 59.863951
Number Constraints Used in Cover:436
GRASP Method!
Number cuts repeat: 0
value: 59.863951
Number Constraints Used in Cover:442
GRASP Method!
Number cuts repeat: 0
value: 59.863951
Number Constraints Used in Cover:448
GRASP Method!
Number cuts repeat: 0
value: 59.863951
Number Constraints Used in Cover:452
GRASP Method!
Number cuts repeat: 0
value: 59.863951
Number Constraints Used in Cover:456
GRASP Method!
Number cuts repeat: 0
value: 59.863951
Number Constraints Used in Cover:459
GRASP Method!
Number cuts repeat: 0
value: 59.863951
Number Constraints Used in Cover:461
GRASP Method!
Number cuts repeat: 0
value: 59.863951
Number Constraints Used in Cover:463
GRASP Method!
Number cuts repeat: 0
value: 59.863951
Number Constraints Used in Cover:466
GRASP Method!
Number cuts repeat: 0
value: 59.863951
Number Constraints Used in Cover:467
GRASP Method!
Number cuts repeat: 0
value: 59.863951
Number Constraints Used in Cover:467
GRASP Method!
Number cuts repeat: 0
value: 59.863951
Number Constraints Used in Cover:469
GRASP Method!
Number cuts repeat: 0
value: 59.863951
Number Constraints Used in Cover:469
GRASP Method!
Number cuts repeat: 0
value: 59.863951
Number Constraints Used in Cover:469
GRASP Method!
Number cuts repeat: 0
value: 59.863951
Number Constraints Used in Cover:474
GRASP Method!
Number cuts repeat: 0
value: 59.863951
Number Constraints Used in Cover:474
GRASP Method!
Number cuts repeat: 0
value: 59.863951
Number Constraints Used in Cover:474
GRASP Method!
Number cuts repeat: 0
value: 59.863951
Number Constraints Used in Cover:479
GRASP Method!
Number cuts repeat: 0
value: 59.863951
Number Constraints Used in Cover:481
GRASP Method!
Number cuts repeat: 0
value: 59.863951
Number Constraints Used in Cover:482
GRASP Method!
Number cuts repeat: 0
value: 59.863951
Number Constraints Used in Cover:483
GRASP Method!
Number cuts repeat: 0
value: 59.863951
Number Constraints Used in Cover:484
GRASP Method!
Number cuts repeat: 0
value: 59.863951
Number Constraints Used in Cover:484
GRASP Method!
Number cuts repeat: 0
value: 59.863951
Number Constraints Used in Cover:485
GRASP Method!
Number cuts repeat: 0
value: 59.863951
Number Constraints Used in Cover:487
GRASP Method!
Number cuts repeat: 0
value: 59.863951
Number Constraints Used in Cover:488
GRASP Method!
Number cuts repeat: 0
value: 59.863951
Number Constraints Used in Cover:490
GRASP Method!
Number cuts repeat: 0
value: 59.863951
Number Constraints Used in Cover:491
GRASP Method!
Number cuts repeat: 0
value: 59.863951
Number Constraints Used in Cover:494
GRASP Method!
Number cuts repeat: 0
value: 59.863951
Number Constraints Used in Cover:496
GRASP Method!
Number cuts repeat: 0
value: 59.863951
Number Constraints Used in Cover:496
GRASP Method!
Number cuts repeat: 0
value: 59.863951
Number Constraints Used in Cover:499
GRASP Method!
Number cuts repeat: 0
value: 59.863951
Number Constraints Used in Cover:499
GRASP Method!
Number cuts repeat: 0
value: 59.863951
Number Constraints Used in Cover:499
GRASP Method!
Number cuts repeat: 0
value: 59.863951
Number Constraints Used in Cover:500
GRASP Method!
Number cuts repeat: 0
value: 59.863951
Number Constraints Used in Cover:501
GRASP Method!
Number cuts repeat: 0
value: 59.863951
Number Constraints Used in Cover:501
GRASP Method!
Number cuts repeat: 0
value: 59.863951
Number Constraints Used in Cover:501
GRASP Method!
Number cuts repeat: 0
value: 59.863951
Number Constraints Used in Cover:502
GRASP Method!
Number cuts repeat: 0
value: 59.863951
Number Constraints Used in Cover:504
GRASP Method!
Number cuts repeat: 0
value: 59.863951
Number Constraints Used in Cover:505
GRASP Method!
Number cuts repeat: 0
value: 59.863951
Number Constraints Used in Cover:505
GRASP Method!
Number cuts repeat: 0
value: 59.863951
Number Constraints Used in Cover:505
GRASP Method!
Number cuts repeat: 0
value: 59.863951
Number Constraints Used in Cover:505
GRASP Method!
Number cuts repeat: 0
value: 59.863951
Number Constraints Used in Cover:506
GRASP Method!
Number cuts repeat: 0
value: 59.863951
Number Constraints Used in Cover:507
GRASP Method!
Number cuts repeat: 0
value: 59.863951
Number Constraints Used in Cover:507
GRASP Method!
Number cuts repeat: 0
value: 59.863951
Number Constraints Used in Cover:507
GRASP Method!
Number cuts repeat: 0
value: 59.863951
Number Constraints Used in Cover:507
GRASP Method!
Number cuts repeat: 0
value: 59.863951
Number Constraints Used in Cover:510
GRASP Method!
Number cuts repeat: 0
value: 59.863951
Number Constraints Used in Cover:510
GRASP Method!
Number cuts repeat: 0
value: 59.863951
Number Constraints Used in Cover:512
GRASP Method!
Number cuts repeat: 0
value: 59.863951
Number Constraints Used in Cover:512
GRASP Method!
Number cuts repeat: 0
value: 59.863951
Number Constraints Used in Cover:514
GRASP Method!
Number cuts repeat: 0
value: 59.863951
Number Constraints Used in Cover:515
GRASP Method!
Number cuts repeat: 0
value: 59.863951
Number Constraints Used in Cover:515
GRASP Method!
Number cuts repeat: 0
value: 59.863951
Number Constraints Used in Cover:515
GRASP Method!
Number cuts repeat: 0
value: 59.863951
Number Constraints Used in Cover:515
GRASP Method!
Number cuts repeat: 0
value: 59.863951
Number Constraints Used in Cover:515
GRASP Method!
Number cuts repeat: 0
value: 59.863951
Number Constraints Used in Cover:515
GRASP Method!
Number cuts repeat: 0
value: 59.863951
Number Constraints Used in Cover:517
GRASP Method!
Number cuts repeat: 0
value: 59.863951
Number Constraints Used in Cover:517
GRASP Method!
Number cuts repeat: 0
value: 59.863951
Number Cuts Final: 512
